\* Food_Manufacture_1 *\
Maximize
OBJ: - 120 qty_purchased_of_oil_OIL1_in_month_April
 - 110 qty_purchased_of_oil_OIL1_in_month_February
 - 130 qty_purchased_of_oil_OIL1_in_month_January
 - 140 qty_purchased_of_oil_OIL1_in_month_June
 - 130 qty_purchased_of_oil_OIL1_in_month_March
 - 150 qty_purchased_of_oil_OIL1_in_month_May
 - 120 qty_purchased_of_oil_OIL2_in_month_April
 - 90 qty_purchased_of_oil_OIL2_in_month_February
 - 110 qty_purchased_of_oil_OIL2_in_month_January
 - 80 qty_purchased_of_oil_OIL2_in_month_June
 - 100 qty_purchased_of_oil_OIL2_in_month_March
 - 110 qty_purchased_of_oil_OIL2_in_month_May
 - 125 qty_purchased_of_oil_OIL3_in_month_April
 - 115 qty_purchased_of_oil_OIL3_in_month_February
 - 115 qty_purchased_of_oil_OIL3_in_month_January
 - 135 qty_purchased_of_oil_OIL3_in_month_June
 - 95 qty_purchased_of_oil_OIL3_in_month_March
 - 105 qty_purchased_of_oil_OIL3_in_month_May
 - 120 qty_purchased_of_oil_VEG1_in_month_April
 - 130 qty_purchased_of_oil_VEG1_in_month_February
 - 11000 qty_purchased_of_oil_VEG1_in_month_January
 - 90 qty_purchased_of_oil_VEG1_in_month_June
 - 110 qty_purchased_of_oil_VEG1_in_month_March
 - 100 qty_purchased_of_oil_VEG1_in_month_May
 - 110 qty_purchased_of_oil_VEG2_in_month_April
 - 130 qty_purchased_of_oil_VEG2_in_month_February
 - 120 qty_purchased_of_oil_VEG2_in_month_January
 - 100 qty_purchased_of_oil_VEG2_in_month_June
 - 140 qty_purchased_of_oil_VEG2_in_month_March
 - 120 qty_purchased_of_oil_VEG2_in_month_May
 + 150 qty_refined_of_oil_OIL1_in_month_April
 + 150 qty_refined_of_oil_OIL1_in_month_February
 + 150 qty_refined_of_oil_OIL1_in_month_January
 + 150 qty_refined_of_oil_OIL1_in_month_June
 + 150 qty_refined_of_oil_OIL1_in_month_March
 + 150 qty_refined_of_oil_OIL1_in_month_May
 + 150 qty_refined_of_oil_OIL2_in_month_April
 + 150 qty_refined_of_oil_OIL2_in_month_February
 + 150 qty_refined_of_oil_OIL2_in_month_January
 + 150 qty_refined_of_oil_OIL2_in_month_June
 + 150 qty_refined_of_oil_OIL2_in_month_March
 + 150 qty_refined_of_oil_OIL2_in_month_May
 + 150 qty_refined_of_oil_OIL3_in_month_April
 + 150 qty_refined_of_oil_OIL3_in_month_February
 + 150 qty_refined_of_oil_OIL3_in_month_January
 + 150 qty_refined_of_oil_OIL3_in_month_June
 + 150 qty_refined_of_oil_OIL3_in_month_March
 + 150 qty_refined_of_oil_OIL3_in_month_May
 + 150 qty_refined_of_oil_VEG1_in_month_April
 + 150 qty_refined_of_oil_VEG1_in_month_February
 + 150 qty_refined_of_oil_VEG1_in_month_January
 + 150 qty_refined_of_oil_VEG1_in_month_June
 + 150 qty_refined_of_oil_VEG1_in_month_March
 + 150 qty_refined_of_oil_VEG1_in_month_May
 + 150 qty_refined_of_oil_VEG2_in_month_April
 + 150 qty_refined_of_oil_VEG2_in_month_February
 + 150 qty_refined_of_oil_VEG2_in_month_January
 + 150 qty_refined_of_oil_VEG2_in_month_June
 + 150 qty_refined_of_oil_VEG2_in_month_March
 + 150 qty_refined_of_oil_VEG2_in_month_May
 - 5 qty_stored_of_oil_OIL1_at_month_end_April
 - 5 qty_stored_of_oil_OIL1_at_month_end_February
 - 5 qty_stored_of_oil_OIL1_at_month_end_January
 - 5 qty_stored_of_oil_OIL1_at_month_end_June
 - 5 qty_stored_of_oil_OIL1_at_month_end_March
 - 5 qty_stored_of_oil_OIL1_at_month_end_May
 - 5 qty_stored_of_oil_OIL2_at_month_end_April
 - 5 qty_stored_of_oil_OIL2_at_month_end_February
 - 5 qty_stored_of_oil_OIL2_at_month_end_January
 - 5 qty_stored_of_oil_OIL2_at_month_end_June
 - 5 qty_stored_of_oil_OIL2_at_month_end_March
 - 5 qty_stored_of_oil_OIL2_at_month_end_May
 - 5 qty_stored_of_oil_OIL3_at_month_end_April
 - 5 qty_stored_of_oil_OIL3_at_month_end_February
 - 5 qty_stored_of_oil_OIL3_at_month_end_January
 - 5 qty_stored_of_oil_OIL3_at_month_end_June
 - 5 qty_stored_of_oil_OIL3_at_month_end_March
 - 5 qty_stored_of_oil_OIL3_at_month_end_May
 - 5 qty_stored_of_oil_VEG1_at_month_end_April
 - 5 qty_stored_of_oil_VEG1_at_month_end_February
 - 5 qty_stored_of_oil_VEG1_at_month_end_January
 - 5 qty_stored_of_oil_VEG1_at_month_end_June
 - 5 qty_stored_of_oil_VEG1_at_month_end_March
 - 5 qty_stored_of_oil_VEG1_at_month_end_May
 - 5 qty_stored_of_oil_VEG2_at_month_end_April
 - 5 qty_stored_of_oil_VEG2_at_month_end_February
 - 5 qty_stored_of_oil_VEG2_at_month_end_January
 - 5 qty_stored_of_oil_VEG2_at_month_end_June
 - 5 qty_stored_of_oil_VEG2_at_month_end_March
 - 5 qty_stored_of_oil_VEG2_at_month_end_May
Subject To
Inventory_Balance_Constraint_for_OIL1_1:
 qty_purchased_of_oil_OIL1_in_month_February
 - qty_refined_of_oil_OIL1_in_month_February
 - qty_stored_of_oil_OIL1_at_month_end_February
 + qty_stored_of_oil_OIL1_at_month_end_January = 0
Inventory_Balance_Constraint_for_OIL1_2:
 qty_purchased_of_oil_OIL1_in_month_March
 - qty_refined_of_oil_OIL1_in_month_March
 + qty_stored_of_oil_OIL1_at_month_end_February
 - qty_stored_of_oil_OIL1_at_month_end_March = 0
Inventory_Balance_Constraint_for_OIL1_3:
 qty_purchased_of_oil_OIL1_in_month_April
 - qty_refined_of_oil_OIL1_in_month_April
 - qty_stored_of_oil_OIL1_at_month_end_April
 + qty_stored_of_oil_OIL1_at_month_end_March = 0
Inventory_Balance_Constraint_for_OIL1_4:
 qty_purchased_of_oil_OIL1_in_month_May - qty_refined_of_oil_OIL1_in_month_May
 + qty_stored_of_oil_OIL1_at_month_end_April
 - qty_stored_of_oil_OIL1_at_month_end_May = 0
Inventory_Balance_Constraint_for_OIL1_5:
 qty_purchased_of_oil_OIL1_in_month_June
 - qty_refined_of_oil_OIL1_in_month_June
 - qty_stored_of_oil_OIL1_at_month_end_June
 + qty_stored_of_oil_OIL1_at_month_end_May = 0
Inventory_Balance_Constraint_for_OIL1_January:
 qty_purchased_of_oil_OIL1_in_month_January
 - qty_refined_of_oil_OIL1_in_month_January
 - qty_stored_of_oil_OIL1_at_month_end_January = -500
Inventory_Balance_Constraint_for_OIL2_1:
 qty_purchased_of_oil_OIL2_in_month_February
 - qty_refined_of_oil_OIL2_in_month_February
 - qty_stored_of_oil_OIL2_at_month_end_February
 + qty_stored_of_oil_OIL2_at_month_end_January = 0
Inventory_Balance_Constraint_for_OIL2_2:
 qty_purchased_of_oil_OIL2_in_month_March
 - qty_refined_of_oil_OIL2_in_month_March
 + qty_stored_of_oil_OIL2_at_month_end_February
 - qty_stored_of_oil_OIL2_at_month_end_March = 0
Inventory_Balance_Constraint_for_OIL2_3:
 qty_purchased_of_oil_OIL2_in_month_April
 - qty_refined_of_oil_OIL2_in_month_April
 - qty_stored_of_oil_OIL2_at_month_end_April
 + qty_stored_of_oil_OIL2_at_month_end_March = 0
Inventory_Balance_Constraint_for_OIL2_4:
 qty_purchased_of_oil_OIL2_in_month_May - qty_refined_of_oil_OIL2_in_month_May
 + qty_stored_of_oil_OIL2_at_month_end_April
 - qty_stored_of_oil_OIL2_at_month_end_May = 0
Inventory_Balance_Constraint_for_OIL2_5:
 qty_purchased_of_oil_OIL2_in_month_June
 - qty_refined_of_oil_OIL2_in_month_June
 - qty_stored_of_oil_OIL2_at_month_end_June
 + qty_stored_of_oil_OIL2_at_month_end_May = 0
Inventory_Balance_Constraint_for_OIL2_January:
 qty_purchased_of_oil_OIL2_in_month_January
 - qty_refined_of_oil_OIL2_in_month_January
 - qty_stored_of_oil_OIL2_at_month_end_January = -500
Inventory_Balance_Constraint_for_OIL3_1:
 qty_purchased_of_oil_OIL3_in_month_February
 - qty_refined_of_oil_OIL3_in_month_February
 - qty_stored_of_oil_OIL3_at_month_end_February
 + qty_stored_of_oil_OIL3_at_month_end_January = 0
Inventory_Balance_Constraint_for_OIL3_2:
 qty_purchased_of_oil_OIL3_in_month_March
 - qty_refined_of_oil_OIL3_in_month_March
 + qty_stored_of_oil_OIL3_at_month_end_February
 - qty_stored_of_oil_OIL3_at_month_end_March = 0
Inventory_Balance_Constraint_for_OIL3_3:
 qty_purchased_of_oil_OIL3_in_month_April
 - qty_refined_of_oil_OIL3_in_month_April
 - qty_stored_of_oil_OIL3_at_month_end_April
 + qty_stored_of_oil_OIL3_at_month_end_March = 0
Inventory_Balance_Constraint_for_OIL3_4:
 qty_purchased_of_oil_OIL3_in_month_May - qty_refined_of_oil_OIL3_in_month_May
 + qty_stored_of_oil_OIL3_at_month_end_April
 - qty_stored_of_oil_OIL3_at_month_end_May = 0
Inventory_Balance_Constraint_for_OIL3_5:
 qty_purchased_of_oil_OIL3_in_month_June
 - qty_refined_of_oil_OIL3_in_month_June
 - qty_stored_of_oil_OIL3_at_month_end_June
 + qty_stored_of_oil_OIL3_at_month_end_May = 0
Inventory_Balance_Constraint_for_OIL3_January:
 qty_purchased_of_oil_OIL3_in_month_January
 - qty_refined_of_oil_OIL3_in_month_January
 - qty_stored_of_oil_OIL3_at_month_end_January = -500
Inventory_Balance_Constraint_for_VEG1_1:
 qty_purchased_of_oil_VEG1_in_month_February
 - qty_refined_of_oil_VEG1_in_month_February
 - qty_stored_of_oil_VEG1_at_month_end_February
 + qty_stored_of_oil_VEG1_at_month_end_January = 0
Inventory_Balance_Constraint_for_VEG1_2:
 qty_purchased_of_oil_VEG1_in_month_March
 - qty_refined_of_oil_VEG1_in_month_March
 + qty_stored_of_oil_VEG1_at_month_end_February
 - qty_stored_of_oil_VEG1_at_month_end_March = 0
Inventory_Balance_Constraint_for_VEG1_3:
 qty_purchased_of_oil_VEG1_in_month_April
 - qty_refined_of_oil_VEG1_in_month_April
 - qty_stored_of_oil_VEG1_at_month_end_April
 + qty_stored_of_oil_VEG1_at_month_end_March = 0
Inventory_Balance_Constraint_for_VEG1_4:
 qty_purchased_of_oil_VEG1_in_month_May - qty_refined_of_oil_VEG1_in_month_May
 + qty_stored_of_oil_VEG1_at_month_end_April
 - qty_stored_of_oil_VEG1_at_month_end_May = 0
Inventory_Balance_Constraint_for_VEG1_5:
 qty_purchased_of_oil_VEG1_in_month_June
 - qty_refined_of_oil_VEG1_in_month_June
 - qty_stored_of_oil_VEG1_at_month_end_June
 + qty_stored_of_oil_VEG1_at_month_end_May = 0
Inventory_Balance_Constraint_for_VEG1_January:
 qty_purchased_of_oil_VEG1_in_month_January
 - qty_refined_of_oil_VEG1_in_month_January
 - qty_stored_of_oil_VEG1_at_month_end_January = -500
Inventory_Balance_Constraint_for_VEG2_1:
 qty_purchased_of_oil_VEG2_in_month_February
 - qty_refined_of_oil_VEG2_in_month_February
 - qty_stored_of_oil_VEG2_at_month_end_February
 + qty_stored_of_oil_VEG2_at_month_end_January = 0
Inventory_Balance_Constraint_for_VEG2_2:
 qty_purchased_of_oil_VEG2_in_month_March
 - qty_refined_of_oil_VEG2_in_month_March
 + qty_stored_of_oil_VEG2_at_month_end_February
 - qty_stored_of_oil_VEG2_at_month_end_March = 0
Inventory_Balance_Constraint_for_VEG2_3:
 qty_purchased_of_oil_VEG2_in_month_April
 - qty_refined_of_oil_VEG2_in_month_April
 - qty_stored_of_oil_VEG2_at_month_end_April
 + qty_stored_of_oil_VEG2_at_month_end_March = 0
Inventory_Balance_Constraint_for_VEG2_4:
 qty_purchased_of_oil_VEG2_in_month_May - qty_refined_of_oil_VEG2_in_month_May
 + qty_stored_of_oil_VEG2_at_month_end_April
 - qty_stored_of_oil_VEG2_at_month_end_May = 0
Inventory_Balance_Constraint_for_VEG2_5:
 qty_purchased_of_oil_VEG2_in_month_June
 - qty_refined_of_oil_VEG2_in_month_June
 - qty_stored_of_oil_VEG2_at_month_end_June
 + qty_stored_of_oil_VEG2_at_month_end_May = 0
Inventory_Balance_Constraint_for_VEG2_January:
 qty_purchased_of_oil_VEG2_in_month_January
 - qty_refined_of_oil_VEG2_in_month_January
 - qty_stored_of_oil_VEG2_at_month_end_January = -500
End
